Solver command line: ['C:\\Program Files\\IBM\\ILOG\\CPLEX_Studio201\\cplex\\bin\\x64_win64\\cplex.exe']


Welcome to IBM(R) ILOG(R) CPLEX(R) Interactive Optimizer 20.1.0.0
  with Simplex, Mixed Integer & Barrier Optimizers
5725-A06 5725-A29 5724-Y48 5724-Y49 5724-Y54 5724-Y55 5655-Y21
Copyright IBM Corp. 1988, 2020.  All Rights Reserved.

Type 'help' for a list of available commands.
Type 'help' followed by a command name for more
information on commands.

CPLEX> Logfile 'cplex.log' closed.
Logfile 'some_file_name.log' open.
CPLEX> New value for time limit in seconds: 5
CPLEX> Problem 'C:\Users\USER\AppData\Local\Temp\tmppqcwuo_m.pyomo.lp' read.
Read time = 0.56 sec. (27.85 ticks)
CPLEX> Problem name         : C:\Users\USER\AppData\Local\Temp\tmppqcwuo_m.pyomo.lp
Objective sense      : Minimize
Variables            :  250501  [Nneg: 1,  Box: 250000,  Binary: 500]
Objective nonzeros   :  249992
Linear constraints   :  250501  [Less: 250000,  Equal: 501]
  Nonzeros           :  750001
  RHS nonzeros       :     501

Variables            : Min LB: 0.000000         Max UB: 1.000000       
Objective nonzeros   : Min   : 50.00000         Max   : 22361.00       
Linear constraints   :
  Nonzeros           : Min   : 1.000000         Max   : 1.000000       
  RHS nonzeros       : Min   : 1.000000         Max   : 1.000000       
CPLEX> Version identifier: 20.1.0.0 | 2020-11-10 | 9bedb6d68
CPXPARAM_TimeLimit                               5
Found incumbent of value 2651243.000000 after 0.03 sec. (19.55 ticks)
Tried aggregator 1 time.
MIP Presolve eliminated 1 rows and 1 columns.
Reduced MIP has 250500 rows, 250500 columns, and 750000 nonzeros.
Reduced MIP has 500 binaries, 0 generals, 0 SOSs, and 0 indicators.
Presolve time = 0.55 sec. (307.00 ticks)
Probing time = 0.30 sec. (13.99 ticks)
Tried aggregator 1 time.
Detecting symmetries...
MIP Presolve eliminated 2004 rows and 2000 columns.
Reduced MIP has 248496 rows, 248500 columns, and 744000 nonzeros.
Reduced MIP has 500 binaries, 0 generals, 0 SOSs, and 0 indicators.
Presolve time = 1.47 sec. (484.01 ticks)
Probing time = 0.86 sec. (14.97 ticks)
MIP emphasis: balance optimality and feasibility.
MIP search method: dynamic search.
Parallel mode: deterministic, using up to 8 threads.
Root relaxation solution time = 0.95 sec. (136.94 ticks)

        Nodes                                         Cuts/
   Node  Left     Objective  IInf  Best Integer    Best Bound    ItCnt     Gap

*     0+    0                      2651243.0000        0.0000           100.00%
      0     0  -1.00000e+37     0  2651243.0000        0.0000        0  100.00%

Root node processing (before b&c):
  Real time             =    5.39 sec. (1540.33 ticks)
Parallel b&c, 8 threads:
  Real time             =    0.00 sec. (0.00 ticks)
  Sync time (average)   =    0.00 sec.
  Wait time (average)   =    0.00 sec.
                          ------------
Total (root+branch&cut) =    5.39 sec. (1540.33 ticks)

Solution pool: 1 solution saved.

MIP - Time limit exceeded, integer feasible:  Objective =  2.6512430000e+06
Current MIP best bound =  0.0000000000e+00 (gap = 2.65124e+06, 100.00%)
Solution time =    5.39 sec.  Iterations = 0  Nodes = 0
Deterministic time = 1541.05 ticks  (285.91 ticks/sec)

CPLEX> Incumbent solution written to file 'C:\Users\USER\AppData\Local\Temp\tmpo8oiidyz.cplex.sol'.
CPLEX> 
